50

99 25 316
96 26 420
96 1 361
96 1 397
95 6 318
95 11 377
94 4 355
90 10 345
90 2 398
88 27 472
87 19 321
84 24 307
82 9 246
78 7 242
77 12 446
77 19 468
77 16 391
75 20 230
75 11 465
70 14 395
70 6 456
69 21 303
68 5 330
56 6 356
54 5 220
53 14 207
53 5 286
50 5 192
50 1 290
49 3 457
48 10 320
47 14 415
45 2 220
38 10 196
36 2 357
35 3 264
34 9 450
28 6 222
25 5 322
21 6 227
19 2 226
18 5 423
16 1 467
13 2 403
13 3 388
7 2 371
7 1 168
6 1 77
3 1 224
3 1 242
